CMD:
./solvers/bin/cadical --plain --no-reduce -t 1600 ./data/cnfs//eijks444/eijks444.47.cnf

c --- [ banner ] -------------------------------------------------------------
c 
c CaDiCaL SAT Solver
c Copyright (c) 2016-2024
c A. Biere, M. Fleury, N. Froleyks, K. Fazekas, F. Pollitt, T. Faller
c JKU Linz, University of Freiburg, TU Wien
c 
c Version 2.1.3 5296d3d2a9bf48c154ab2acb5e44625776d821bf
c g++ (Gentoo 12.3.1_p20230526 p2) 12.3.1 20230526 -Wall -Wextra -O3 -DNDEBUG
c Sat Aug 9 07:26:21 PDT 2025 Linux cedar2.int.cedar.computecanada.ca 5.14.0-362.24.2.el9_3.x86_64 x86_64
c 
c --- [ limit ] --------------------------------------------------------------
c 
c setting time limit to 1600 seconds real time (due to '-t 1600')
c 
c --- [ parsing input ] ------------------------------------------------------
c 
c reading DIMACS file from './data/cnfs//eijks444/eijks444.47.cnf'
c opening file to read './data/cnfs//eijks444/eijks444.47.cnf'
c found 'p cnf 14841 43833' header
c parsed 43833 clauses in 0.01 seconds process time
c 
c --- [ options ] ------------------------------------------------------------
c 
c   --compact=false                (different from default 'true')
c   --decompose=false              (different from default 'true')
c   --deduplicate=false            (different from default 'true')
c   --elim=false                   (different from default 'true')
c   --probe=false                  (different from default 'true')
c   --reduce=false                 (different from default 'true')
c   --subsume=false                (different from default 'true')
c   --ternary=false                (different from default 'true')
c   --transred=false               (different from default 'true')
c   --vivify=false                 (different from default 'true')
c 
c --- [ solving ] ------------------------------------------------------------
c 
c time measured in process time since initialization
c 
c  seconds  reductions  redundant  irredundant
c         MB    restarts       trail      variables
c          level   conflicts       glue        remaining
c 
c *  0.01 10  0 0   0    0    0  0% 0 41457 12401 84%
c {  0.01 10  0 0   0    0    0  0% 0 41457 12401 84%
c i  0.03 11 48 0  47  642  592 44% 3 41457 12387 83%
c i  0.03 11 49 0  49  659  604 45% 3 41457 12341 83%
c i  0.03 11 49 0  50  664  606 44% 3 41457 12329 83%
c i  0.03 11 48 0  64  760  693 44% 3 41457 12328 83%
c }  0.04 11 46 0  95 1006  921 43% 3 41457 12328 83%
c [  0.04 11  0 0  95 1006  921  0% 0 41457 12328 83%
c O  0.04 11 58 0  95 1007  922 50% 4 41457 12328 83%
c ]  0.12 11 114 0  96 3007 2810 83% 7 41457 12328 83%
c {  0.12 11 46 0  96 3007 2810 43% 3 41457 12328 83%
c F  0.12 11 46 0  97 3008 2811 43% 3 41457 12328 83%
c i  0.12 11 46 0  97 3010 2812 43% 3 41457 12327 83%
c i  0.12 11 46 0  98 3011 2812 43% 3 41457 12326 83%
c i  0.14 12 45 0 141 3234 3016 43% 3 41457 12325 83%
c i  0.14 12 44 0 163 3312 3091 42% 3 41457 12324 83%
c i  0.14 12 44 0 169 3339 3112 42% 3 41457 12313 83%
c i  0.14 12 44 0 169 3383 3153 42% 3 41457 12252 83%
c i  0.15 12 42 0 205 3696 3440 42% 3 41457 12251 83%
c i  0.16 12 42 0 231 3817 3555 42% 3 41457 12250 83%
c 
c  seconds  reductions  redundant  irredundant
c         MB    restarts       trail      variables
c          level   conflicts       glue        remaining
c 
c i  0.16 12 40 0 233 3900 3630 41% 3 41457 12248 83%
c i  0.17 12 39 0 275 4097 3806 41% 3 41457 12214 82%
c i  0.17 12 39 0 275 4114 3822 41% 3 41457 12173 82%
c i  0.17 12 39 0 275 4122 3829 41% 3 41457 12120 82%
c i  0.17 12 39 0 275 4150 3852 41% 3 41457 12053 81%
c i  0.17 12 39 0 275 4192 3885 41% 3 41457 12039 81%
c i  0.17 12 39 0 275 4223 3908 41% 3 41457 12013 81%
c i  0.17 12 39 0 275 4235 3917 41% 3 41457 11997 81%
c i  0.17 12 39 0 275 4236 3917 41% 3 41457 11991 81%
c i  0.17 12 39 0 275 4237 3917 41% 3 41457 11983 81%
c i  0.17 12 39 0 275 4238 3917 41% 3 41457 11982 81%
c i  0.17 12 39 0 275 4241 3919 41% 3 41457 11967 81%
c i  0.17 12 39 0 275 4246 3923 41% 3 41457 11965 81%
c i  0.17 12 39 0 275 4252 3928 41% 3 41457 11875 80%
c i  0.17 12 39 0 275 4253 3928 41% 3 41457 11872 80%
c i  0.17 12 39 0 275 4264 3933 41% 3 41457 11848 80%
c i  0.18 12 39 0 275 4283 3950 41% 3 41457 11832 80%
c i  0.18 12 39 0 275 4288 3952 41% 3 41457 11816 80%
c i  0.18 12 39 0 275 4318 3978 41% 3 41457 11662 79%
c i  0.18 12 39 0 275 4322 3980 40% 3 41457 11642 78%
c 
c  seconds  reductions  redundant  irredundant
c         MB    restarts       trail      variables
c          level   conflicts       glue        remaining
c 
c i  0.19 12 40 0 310 4673 4296 43% 3 41457 11152 75%
c i  0.19 12 40 0 311 4681 4302 43% 3 41457 11082 75%
c i  0.19 12 41 0 312 4718 4332 44% 3 41457 11066 75%
c i  0.19 12 41 0 314 4732 4345 44% 3 41457 11065 75%
... skipped 107 lines ...
c i  4.04 23 35 0 3990 51853 40727 76% 10 24291 8464 57%
c i  4.07 23 34 0 3990 52240 40917 76% 10 24291 8462 57%
c B  4.25 23 35 0 3991 55022 43609 77% 10 24291 8462 57%
c ]  4.73 23 33 0 3997 63015 51005 79% 11 24291 8462 57%
c {  4.73 23 30 0 3997 63015 51005 66% 7 24291 8462 57%
c F  5.21 24 29 0 4642 66023 53805 67% 7 24291 8462 57%
c i  6.36 26 26 0 6109 75703 62533 69% 7 24291 8458 57%
c B  6.63 26 25 0 6352 78025 64547 70% 7 24291 8458 57%
c i  6.94 27 24 0 6534 80946 67013 70% 7 24291 8451 57%
c 
c  seconds  reductions     redundant  irredundant
c         MB    restarts          trail     variables
c          level     conflicts        glue       remaining
c 
c i  7.37 28 23 0 6885 85188 70719 71% 7 24291 8449 57%
c i  7.89 29 22 0 7231 90484 75018 71% 7 24291 8428 57%
c i  7.98 29 22 0 7326 90910 75413 71% 7 24291 8420 57%
c W  8.04 30 22 0 7340 91026 40867 71% 7 23679 8420 57%
c i  8.17 30 22 0 7493 91939 41699 71% 8 23679 8373 56%
c i  8.53 30 21 0 7870 94617 44003 72% 8 23679 8369 56%
c i  8.56 30 21 0 7888 94917 44217 72% 8 23679 8345 56%
c i  8.86 30 21 0 8117 97961 46987 72% 8 23679 8331 56%
c i  8.87 30 21 0 8117 98045 47036 72% 8 23679 8323 56%
c i  9.40 30 20 0 8555 103920 51806 73% 8 23679 8308 56%
c i  9.46 30 20 0 8628 104228 52093 73% 8 23679 8301 56%
c #  9.57 30 20 0 8751 105028 52851 73% 8 23679 8301 56%
c i  9.62 30 20 0 8783 105332 53125 73% 8 23679 8294 56%
c i  9.67 30 20 0 8816 105722 53491 73% 8 23679 8287 56%
c i  9.96 30 20 0 9074 108096 55613 73% 8 23679 8247 56%
c i  9.96 30 20 0 9074 108097 55613 73% 8 23679 7900 53%
c i 10.13 30 20 0 9148 110195 57273 73% 8 23679 7876 53%
c i 10.72 30 19 0 9531 116234 62185 73% 8 23679 7870 53%
c i 10.81 30 19 0 9630 117015 62888 74% 8 23679 7837 53%
c i 10.84 30 19 0 9630 117513 63358 74% 8 23679 7807 53%
c 
c  seconds  reductions      redundant  irredundant
c         MB    restarts           trail     variables
c          level     conflicts         glue       remaining
c 
c B 11.09 30 19 0 9868 120030 65561 74% 8 23679 7807 53%
c i 11.13 30 19 0 9868 120483 65924 74% 8 23679 5744 39%
c i 11.22 30 19 0 9903 121549 66776 74% 8 23679 5719 39%
c i 11.29 30 18 0 9909 122540 67498 74% 8 23679 5651 38%
c i 11.29 30 18 0 9909 122596 67516 74% 8 23679 5630 38%
c } 11.30 30 18 0 9909 122668 67575 74% 8 23679 5429 37%
c 0 11.30 30 18 0 9909 122668 67575 74% 8 23679 5429 37%
c 
c --- [ result ] -------------------------------------------------------------
c 
s UNSATISFIABLE
c 
c --- [ run-time profiling ] -------------------------------------------------
c 
c process time taken by individual solving procedures
c (percentage relative to process time for solving)
c 
c        11.29  100.00% search
c         8.71   77.16% unstable
c         2.49   22.08% stable
c         0.08    0.73% walk
c         0.01    0.06% parse
c         0.00    0.02% lucky
c         0.00    0.00% simplify
c   =================================
c        11.29   99.93% solve
c 
c last line shows process time for solving
c (percentage relative to total process time)
c 
c --- [ statistics ] ---------------------------------------------------------
c 
c chronological:             25092        20.46 %  of conflicts
c conflicts:                122668     10863.90    per second
c decisions:                363857     32224.42    per second
c fixed:                      9412        63.42 %  of all variables
c learned:                  119925        97.76 %  per conflict
c learned_lits:            6794936       100.00 %  learned literals
c minimized:                     0         0.00 %  learned literals
c shrunken:                1720964        25.33 %  learned literals
c minishrunken:            1600793        23.56 %  learned literals
c otfs:                        568         0.46 %  of conflict
c propagations:           78288634         6.93 M  per second
c rephased:                     15      8177.87    interval
c restarts:                   9909        12.38    interval
c stabilizing:                   3        34.24 %  of conflicts
c subsumed:                  11012         6.83 %  of all clauses
c strengthened:                548         0.34 %  of all clauses
c walked:                        3     40889.33    interval
c 
c seconds are measured in process time for solving
c 
c --- [ resources ] ----------------------------------------------------------
c 
c total process time since initialization:        11.30    seconds
c total real time since initialization:           11.35    seconds
c maximum resident set size of process:           34.41    MB
c 
c --- [ shutting down ] ------------------------------------------------------
c 
c exit 20
